307,216
512,237
672,434
672,465
521,487
532,700
573,619
415,448
536,301
417,42
926,-75
698,382
751,503
909,480
850,529
857,648
668,432
361,569
681,676
1194,572
852,351
921,284
1001,243
699,288
685,377
651,406
600,246
681,-14
521,325
396,498
737,761
810,805
